problems/csplib-prob056/params/sonet-60-30-30-8208.param
language Essence 1.3
letting nnodes be 60
letting nrings be 30
letting capacity be 30
letting demand be 
{{1, 2},
{1, 7},
{1, 11},
{1, 12},
{1, 17},
{1, 18},
{1, 20},
{1, 21},
{1, 22},
{1, 24},
{1, 25},
{1, 26},
{1, 29},
{1, 30},
{1, 31},
{1, 35},
{1, 36},
{1, 38},
{1, 39},
{1, 42},
{1, 43},
{1, 46},
{1, 47},
{1, 48},
{1, 53},
{1, 54},
{1, 59},
{2, 4},
{2, 6},
{2, 7},
{2, 8},
{2, 10},
{2, 13},
{2, 14},
{2, 16},
{2, 17},
{2, 22},
{2, 23},
{2, 24},
{2, 25},
{2, 26},
{2, 27},
{2, 29},
{2, 31},
{2, 32},
{2, 33},
{2, 35},
{2, 36},
{2, 37},
{2, 41},
{2, 43},
{2, 46},
{2, 54},
{2, 55},
{2, 59},
{3, 4},
{3, 5},
{3, 6},
{3, 7},
{3, 9},
{3, 12},
{3, 13},
{3, 14},
{3, 16},
{3, 18},
{3, 20},
{3, 22},
{3, 23},
{3, 25},
{3, 26},
{3, 28},
{3, 29},
{3, 30},
{3, 31},
{3, 35},
{3, 38},
{3, 40},
{3, 41},
{3, 43},
{3, 46},
{3, 49},
{3, 51},
{3, 53},
{4, 6},
{4, 7},
{4, 9},
{4, 10},
{4, 11},
{4, 13},
{4, 17},
{4, 18},
{4, 20},
{4, 22},
{4, 23},
{4, 27},
{4, 29},
{4, 32},
{4, 33},
{4, 36},
{4, 39},
{4, 40},
{4, 42},
{4, 43},
{4, 49},
{4, 53},
{4, 59},
{4, 60},
{5, 6},
{5, 9},
{5, 11},
{5, 14},
{5, 15},
{5, 19},
{5, 22},
{5, 24},
{5, 25},
{5, 27},
{5, 28},
{5, 29},
{5, 31},
{5, 38},
{5, 43},
{5, 44},
{5, 46},
{5, 47},
{5, 52},
{5, 57},
{6, 9},
{6, 12},
{6, 13},
{6, 16},
{6, 17},
{6, 18},
{6, 20},
{6, 23},
{6, 24},
{6, 25},
{6, 26},
{6, 28},
{6, 31},
{6, 32},
{6, 33},
{6, 35},
{6, 38},
{6, 40},
{6, 45},
{6, 46},
{6, 48},
{6, 49},
{6, 51},
{6, 52},
{6, 53},
{6, 56},
{6, 60},
{7, 9},
{7, 15},
{7, 17},
{7, 20},
{7, 21},
{7, 28},
{7, 29},
{7, 31},
{7, 32},
{7, 34},
{7, 36},
{7, 40},
{7, 45},
{7, 47},
{7, 48},
{7, 52},
{7, 56},
{7, 57},
{7, 58},
{7, 59},
{8, 9},
{8, 10},
{8, 11},
{8, 15},
{8, 17},
{8, 18},
{8, 24},
{8, 25},
{8, 29},
{8, 30},
{8, 31},
{8, 33},
{8, 34},
{8, 38},
{8, 39},
{8, 41},
{8, 42},
{8, 43},
{8, 44},
{8, 45},
{8, 46},
{8, 47},
{8, 48},
{8, 49},
{8, 51},
{8, 54},
{8, 55},
{8, 56},
{8, 57},
{9, 10},
{9, 13},
{9, 15},
{9, 17},
{9, 20},
{9, 27},
{9, 28},
{9, 29},
{9, 30},
{9, 31},
{9, 37},
{9, 38},
{9, 40},
{9, 44},
{9, 48},
{9, 50},
{9, 53},
{9, 54},
{9, 55},
{9, 59},
{10, 14},
{10, 17},
{10, 19},
{10, 20},
{10, 21},
{10, 22},
{10, 23},
{10, 26},
{10, 34},
{10, 35},
{10, 36},
{10, 39},
{10, 40},
{10, 41},
{10, 42},
{10, 43},
{10, 45},
{10, 46},
{10, 49},
{10, 50},
{10, 51},
{10, 56},
{10, 58},
{10, 60},
{11, 13},
{11, 17},
{11, 19},
{11, 20},
{11, 21},
{11, 22},
{11, 26},
{11, 27},
{11, 29},
{11, 33},
{11, 34},
{11, 35},
{11, 36},
{11, 37},
{11, 39},
{11, 44},
{11, 45},
{11, 46},
{11, 48},
{11, 50},
{11, 51},
{11, 52},
{11, 53},
{11, 59},
{12, 13},
{12, 16},
{12, 17},
{12, 18},
{12, 19},
{12, 20},
{12, 23},
{12, 33},
{12, 35},
{12, 37},
{12, 39},
{12, 44},
{12, 46},
{12, 47},
{12, 48},
{12, 49},
{12, 51},
{12, 54},
{12, 60},
{13, 14},
{13, 15},
{13, 16},
{13, 17},
{13, 23},
{13, 25},
{13, 27},
{13, 28},
{13, 29},
{13, 33},
{13, 35},
{13, 36},
{13, 38},
{13, 40},
{13, 42},
{13, 44},
{13, 45},
{13, 50},
{13, 52},
{13, 53},
{13, 55},
{13, 56},
{13, 57},
{13, 59},
{13, 60},
{14, 15},
{14, 18},
{14, 19},
{14, 20},
{14, 21},
{14, 23},
{14, 24},
{14, 25},
{14, 27},
{14, 28},
{14, 29},
{14, 30},
{14, 33},
{14, 37},
{14, 38},
{14, 42},
{14, 43},
{14, 47},
{14, 49},
{14, 53},
{14, 54},
{14, 55},
{14, 57},
{14, 58},
{14, 59},
{14, 60},
{15, 16},
{15, 17},
{15, 19},
{15, 22},
{15, 24},
{15, 28},
{15, 30},
{15, 31},
{15, 37},
{15, 38},
{15, 39},
{15, 43},
{15, 46},
{15, 47},
{15, 49},
{15, 53},
{15, 55},
{15, 57},
{15, 58},
{15, 59},
{16, 17},
{16, 18},
{16, 19},
{16, 20},
{16, 21},
{16, 23},
{16, 26},
{16, 27},
{16, 30},
{16, 31},
{16, 33},
{16, 36},
{16, 37},
{16, 38},
{16, 40},
{16, 41},
{16, 44},
{16, 45},
{16, 46},
{16, 48},
{16, 50},
{16, 51},
{16, 52},
{16, 53},
{16, 58},
{16, 59},
{17, 19},
{17, 26},
{17, 27},
{17, 28},
{17, 31},
{17, 34},
{17, 35},
{17, 36},
{17, 37},
{17, 38},
{17, 40},
{17, 43},
{17, 44},
{17, 45},
{17, 46},
{17, 47},
{17, 48},
{17, 51},
{17, 53},
{17, 56},
{17, 58},
{18, 20},
{18, 23},
{18, 25},
{18, 26},
{18, 31},
{18, 34},
{18, 35},
{18, 37},
{18, 38},
{18, 39},
{18, 40},
{18, 41},
{18, 47},
{18, 48},
{18, 50},
{18, 52},
{18, 54},
{18, 56},
{18, 57},
{18, 59},
{18, 60},
{19, 20},
{19, 23},
{19, 26},
{19, 27},
{19, 28},
{19, 29},
{19, 32},
{19, 37},
{19, 39},
{19, 40},
{19, 41},
{19, 42},
{19, 46},
{19, 47},
{19, 54},
{19, 56},
{19, 57},
{19, 59},
{20, 21},
{20, 24},
{20, 25},
{20, 26},
{20, 27},
{20, 29},
{20, 31},
{20, 32},
{20, 34},
{20, 37},
{20, 38},
{20, 41},
{20, 46},
{20, 48},
{20, 54},
{20, 56},
{20, 57},
{20, 58},
{21, 22},
{21, 23},
{21, 24},
{21, 26},
{21, 30},
{21, 31},
{21, 39},
{21, 40},
{21, 41},
{21, 42},
{21, 46},
{21, 49},
{21, 52},
{21, 53},
{21, 56},
{21, 57},
{21, 58},
{22, 26},
{22, 27},
{22, 29},
{22, 31},
{22, 34},
{22, 35},
{22, 37},
{22, 38},
{22, 41},
{22, 44},
{22, 46},
{22, 47},
{22, 49},
{22, 51},
{22, 52},
{22, 56},
{22, 59},
{23, 25},
{23, 26},
{23, 27},
{23, 29},
{23, 35},
{23, 36},
{23, 38},
{23, 39},
{23, 41},
{23, 43},
{23, 46},
{23, 47},
{23, 49},
{23, 50},
{23, 52},
{23, 53},
{23, 55},
{23, 56},
{23, 57},
{23, 59},
{23, 60},
{24, 25},
{24, 27},
{24, 29},
{24, 33},
{24, 36},
{24, 37},
{24, 38},
{24, 40},
{24, 42},
{24, 45},
{24, 46},
{24, 47},
{24, 49},
{24, 52},
{24, 54},
{24, 57},
{24, 59},
{24, 60},
{25, 26},
{25, 27},
{25, 29},
{25, 31},
{25, 32},
{25, 35},
{25, 37},
{25, 38},
{25, 41},
{25, 42},
{25, 45},
{25, 46},
{25, 47},
{25, 50},
{25, 52},
{25, 56},
{26, 28},
{26, 29},
{26, 30},
{26, 33},
{26, 35},
{26, 38},
{26, 42},
{26, 45},
{26, 46},
{26, 47},
{26, 51},
{26, 56},
{26, 58},
{26, 60},
{27, 28},
{27, 29},
{27, 30},
{27, 31},
{27, 33},
{27, 34},
{27, 35},
{27, 37},
{27, 39},
{27, 40},
{27, 42},
{27, 43},
{27, 44},
{27, 45},
{27, 48},
{27, 49},
{27, 50},
{27, 54},
{27, 58},
{27, 59},
{28, 29},
{28, 32},
{28, 33},
{28, 34},
{28, 37},
{28, 38},
{28, 39},
{28, 42},
{28, 43},
{28, 45},
{28, 46},
{28, 49},
{28, 51},
{28, 53},
{28, 54},
{28, 55},
{28, 59},
{28, 60},
{29, 30},
{29, 32},
{29, 35},
{29, 36},
{29, 37},
{29, 38},
{29, 39},
{29, 40},
{29, 41},
{29, 42},
{29, 49},
{29, 50},
{29, 51},
{29, 52},
{29, 54},
{29, 57},
{29, 58},
{29, 59},
{30, 32},
{30, 35},
{30, 36},
{30, 37},
{30, 38},
{30, 42},
{30, 44},
{30, 47},
{30, 48},
{30, 50},
{30, 51},
{30, 53},
{30, 54},
{30, 55},
{30, 56},
{30, 59},
{31, 33},
{31, 35},
{31, 37},
{31, 38},
{31, 39},
{31, 42},
{31, 43},
{31, 44},
{31, 45},
{31, 47},
{31, 52},
{31, 53},
{31, 54},
{31, 57},
{32, 33},
{32, 34},
{32, 36},
{32, 37},
{32, 38},
{32, 39},
{32, 40},
{32, 41},
{32, 42},
{32, 46},
{32, 47},
{32, 49},
{32, 52},
{32, 57},
{32, 59},
{32, 60},
{33, 34},
{33, 35},
{33, 40},
{33, 41},
{33, 42},
{33, 45},
{33, 46},
{33, 48},
{33, 49},
{33, 55},
{33, 56},
{33, 57},
{33, 58},
{34, 35},
{34, 36},
{34, 37},
{34, 39},
{34, 40},
{34, 41},
{34, 42},
{34, 44},
{34, 45},
{34, 46},
{34, 47},
{34, 48},
{34, 50},
{34, 51},
{34, 52},
{34, 53},
{34, 54},
{34, 56},
{34, 60},
{35, 36},
{35, 39},
{35, 41},
{35, 43},
{35, 45},
{35, 48},
{35, 50},
{35, 54},
{35, 56},
{35, 57},
{36, 37},
{36, 41},
{36, 47},
{36, 48},
{36, 49},
{36, 50},
{36, 51},
{36, 52},
{36, 53},
{36, 58},
{36, 60},
{37, 38},
{37, 40},
{37, 42},
{37, 44},
{37, 45},
{37, 48},
{37, 51},
{37, 53},
{37, 55},
{37, 56},
{37, 57},
{37, 59},
{37, 60},
{38, 41},
{38, 43},
{38, 44},
{38, 49},
{38, 51},
{38, 52},
{38, 54},
{38, 56},
{38, 59},
{39, 40},
{39, 41},
{39, 42},
{39, 43},
{39, 44},
{39, 45},
{39, 47},
{39, 48},
{39, 50},
{39, 51},
{39, 52},
{39, 53},
{39, 56},
{39, 57},
{39, 58},
{39, 59},
{39, 60},
{40, 45},
{40, 46},
{40, 51},
{40, 55},
{40, 56},
{40, 58},
{40, 60},
{41, 42},
{41, 44},
{41, 45},
{41, 46},
{41, 48},
{41, 49},
{41, 51},
{41, 52},
{41, 53},
{41, 54},
{41, 57},
{41, 58},
{42, 43},
{42, 47},
{42, 48},
{42, 50},
{42, 51},
{42, 52},
{42, 53},
{42, 55},
{42, 57},
{43, 44},
{43, 46},
{43, 48},
{43, 51},
{43, 53},
{43, 55},
{43, 56},
{43, 57},
{43, 58},
{43, 59},
{44, 45},
{44, 49},
{44, 50},
{44, 51},
{44, 54},
{44, 55},
{44, 58},
{45, 46},
{45, 49},
{45, 50},
{45, 52},
{45, 54},
{45, 55},
{45, 59},
{46, 48},
{46, 51},
{46, 53},
{46, 56},
{46, 57},
{46, 60},
{47, 51},
{47, 54},
{47, 59},
{47, 60},
{48, 49},
{48, 51},
{48, 52},
{48, 54},
{48, 56},
{48, 58},
{48, 59},
{48, 60},
{49, 50},
{49, 51},
{49, 54},
{49, 60},
{50, 52},
{50, 53},
{50, 56},
{50, 58},
{50, 59},
{51, 53},
{51, 55},
{51, 58},
{52, 53},
{52, 54},
{52, 55},
{52, 56},
{53, 57},
{53, 59},
{54, 55},
{54, 58},
{54, 59},
{55, 56},
{55, 57},
{55, 59},
{56, 58},
{56, 60},
{57, 60},
{58, 60}}
